GeneratedTests/Random_11/Random_11_15.tsp
NAME: Random_11_15
TYPE: TSP
DIMENSION: 11
EDGE_WEIGHT_TYPE: EUC_2D
NODE_COORD_SECTION
1 27.319107 28.188307
2 0.5136089 2.7302866
3 30.375004 23.702887
4 20.573868 8.748318
5 26.019604 17.709385
6 11.9062805 14.973251
7 30.165442 26.692015
8 1.4523649 17.861645
9 21.436049 5.398773
10 30.958233 13.504456
11 27.024302 13.172049
EOF
