GeneratedTests/Random_11/Random_11_15.txt
NAME: Random_11_15
TYPE: TSP
DIMENSION: 11
EDGE_WEIGHT_TYPE: EUC_2D
NODE_COORD_SECTION
1 8.782329 4.2878637
2 23.12151 7.9641743
3 12.127366 9.48264
4 2.2553637 1.525683
5 0.017338693 16.337824
6 24.803392 12.4022045
7 30.5507 10.441166
8 7.380329 18.402628
9 24.038774 9.440787
10 29.650217 11.448864
11 3.7450948 30.204107
EOF
